RAW/CMTQ/fspd/CMT12Q.vrp_seed-6.out
733.9058555	2.246	22.517
