RAW/CMTQ/fspd/CMT12Q.vrp_seed-6.sol
Route #1: 67 65 63 66 62 74 72 61 64 68 40 41 42 43
Route #2: 46 48 45 44 59 60 58 56 53 54 57 55 69
Route #3: 90 87 86 84 83 82 81 78 76 71 70 73 77 79 80
Route #4: 10 11 13 17 18 19 15 16 14 12 9 8 6 3 5
Route #5: 1 99 100 97 93 92 94 95 96 98 85 88 89 91
Route #6: 47 49 52 50 51 31 35 37 38 39 36 34 33 32 24 20
Route #7: 75 2 4 7 23 26 28 30 29 27 25 22 21
Cost 733.905855